(define-fun
  i0
  ((x Int)) Int x)
(define-fun
  h2
  ((x Int)) Int x)
(define-fun
  h0
  ((x Int)) Int x)
(define-fun
  g2
  ((x Int) (y Int)) Int (- y x))
(define-fun
  g1
  ((x Int)) Int x)
(define-fun
  g0
  ((x Int)) Int x)
(define-fun
  f2
  ((x Int)) Int (+ x x))
(define-fun-rec
  u2
  ((x Int) (y Int)) Int (ite (<= x 0) y (f2 (u2 (- x 1) y))))
(define-fun
  v2
  ((x Int) (y Int)) Int (u2 (g2 x y) x))
(define-fun-rec
  u1
  ((x Int) (y Int)) Int (ite (<= x 0) y (v2 (u1 (- x 1) y) x)))
(define-fun
  v1
  ((x Int)) Int (u1 x 1))
(define-fun
  fast
  ((x Int)) Int (+ (+ (ite (<= x 0) 0 (v1 x)) x) 1))
(define-fun
  f0
  ((x Int) (y Int)) Int (+ (mod y x) y))
(define-funs-rec
  ((u0
    ((x Int) (y Int) (z Int)) Int)
   (v0
    ((x Int) (y Int) (z Int)) Int))
  ((ite (<= x 0) y (f0 (u0 (- x 1) y z) (v0 (- x 1) y z)))
   (ite (<= x 0) z (u0 (- x 1) y z))))
(define-fun
  w0
  ((x Int)) Int (u0 x x 1))
(define-fun
  small
  ((x Int)) Int (+ (+ 1 (w0 x)) x))
(assert-not
  (forall ((c Int)) (or (not (>= c 0)) (= (small c) (fast c)))))
